sat
(:added-eqs                       8104
 :arith-eq-adapter                446
 :arith-bound-propagations-lp     234
 :arith-branch                    1
 :arith-conflicts                 689
 :arith-diseq                     291
 :arith-fixed-eqs                 682
 :arith-gcd-calls                 89
 :arith-grobner-calls             103
 :arith-grobner-conflicts         19
 :arith-horner-calls              29
 :arith-horner-cross-nested-forms 2574
 :arith-lower                     2884
 :arith-make-feasible             955
 :arith-max-columns               1407
 :arith-max-rows                  516
 :arith-nla-add-bounds            72
 :arith-nla-lemmas                470
 :arith-nla-propagate-bounds      156
 :arith-nla-propagate-eq          3406
 :arith-nra-calls                 7
 :arith-offset-eqs                558
 :arith-patches                   89
 :arith-patches-success           88
 :arith-upper                     5755
 :binary-propagations             13936
 :conflicts                       86
 :decisions                       19608
 :del-clause                      573
 :elim-unconstrained              51
 :final-checks                    224
 :max-memory                      31.53
 :memory                          19.95
 :minimized-lits                  102
 :mk-bool-var                     3280
 :mk-clause                       1289
 :mk-clause-binary                20551
 :num-allocs                      180409901
 :num-checks                      1
 :propagations                    16790
 :rlimit-count                    1014347
 :time                            0.45
 :total-time                      0.47)
